NAME : problems/30-tsp/instance-6.tsp
COMMENT : No Comment
TYPE : TSP
DIMENSION: 30
EDGE_WEIGHT_TYPE : EUC_2D
NODE_COORD_SECTION
1 2643 9983 
2 4269 1638 
3 4699 5380 
4 8880 4244 
5 9051 9538 
6 9845 3911 
7 5263 3451 
8 4629 1 
9 749 9125 
10 5670 4373 
11 3109 6137 
12 8571 4 
13 2680 1794 
14 8970 5204 
15 7303 7562 
16 2815 8714 
17 415 413 
18 9729 6070 
19 5802 6484 
20 8127 4341 
21 1872 4632 
22 1313 7041 
23 5178 9303 
24 870 7161 
25 2901 2719 
26 2297 7374 
27 2699 1627 
28 2211 8957 
29 7024 7981 
30 66 3121 
EOF
